(set-logic QF_S)
(declare-fun var_0xINPUT_90251 () String)
(assert (and (= (len var_0xINPUT_90251) 0) (= (len var_0xINPUT_90251) 0) (not (= var_0xINPUT_90251 "j2DpYJpVEE"))))
(check-sat var_0xINPUT_90251)